 SYSTEM =  qvasp 

INCAR-basic
   PREC   = Normal
   ENCUT  = 420 eV
   NELMIN= 5
   LREAL = Auto

#   ALGO = Fast
   EDIFF  = 1E-5
#  ISMEAR = 0
   SIGMA = 0.2
   NPAR = 2     ## Important to reduce calculate time, equal sqrt(cpu cores)

   LDAU=.TRUE.  ## For LDA + U set
   LDAUTYPE=2
   LDAUL= -1  2    2   -1
   LDAUU= 0   2.5  3.5  0
   LDAUJ= 0   0    0    0 
   LDAUPRINT = 2
   LMAXMIX = 4
   ISPIN = 1    ## For magnetism set
#  MAGMOM = 3*1
 Ionic Relaxation
   ICHARG = 2
   EDIFFG = -0.05        force
   NSW    = 300          max steps for IOM
   IBRION = 2
   POTIM = 0.5
   ISIF   = 2            suface:2 crystal:3
   PSTRESS= 0
   LCHARG = .FALSE.
   LWAVE  =  F

# Use 'qvasp -cif' to transer format (VESTA or MS)
