40%opt
1.0
       11.4110002518         0.0000000000         0.0000000000
       -5.7055001259         9.8822161006         0.0000000000
        0.0000000000         0.0000000000        26.1811008453
    H   Ti   Mn    O
   23   21   16   84
Direct
     0.336749992         0.669650018         0.297280022
     0.011190033         0.985790097         0.479700012
     0.336739981         0.169650012         0.297280022
     0.001630024         0.492530022         0.476790007
     0.836960066         0.671180042         0.297290003
     0.508319960         0.006840000         0.473639991
     0.836960080         0.171170000         0.297290003
     0.496419994         0.502330013         0.477210000
     0.170600008         0.837010024         0.248160010
     0.835619993         0.171090010         0.431679976
     0.670600019         0.337010006         0.248160010
     0.337949988         0.662470017         0.426769999
     0.670600008         0.837010024         0.248160010
     0.346120010         0.168009998         0.419230023
     0.170600009         0.337010006         0.248160010
     0.844879995         0.676660027         0.426019986
     0.578849959         0.414099986         0.367020007
     0.498650012         0.243640003         0.549579982
     0.001740020         0.735840053         0.548169966
     0.087899998         0.170190013         0.368020011
     0.579720015         0.916499964         0.370169987
     0.230890025         0.988150008         0.556190000
     0.001849998         0.251540021         0.552020018
     0.920600032         0.087010010         0.181430003
     0.170600015         0.587010040         0.181430003
     0.834620015         0.932739963         0.366550001
     0.503930002         0.003680000         0.270399995
     0.420599999         0.337010006         0.181430003
     0.920599987         0.837010024         0.181430003
     0.420600005         0.587010040         0.181430003
     0.091460044         0.933510066         0.369190016
     0.003930027         0.503680008         0.270399995
     0.670600011         0.087010010         0.181430003
     0.170600011         0.087010010         0.181430003
     0.827539961         0.422280011         0.367519991
     0.420599987         0.837010024         0.181430003
     0.503930006         0.503680008         0.270399995
     0.920599984         0.587010040         0.181430003
     0.920599999         0.337010006         0.181430003
     0.589930000         0.669330010         0.364820018
     0.670600005         0.587010040         0.181430003
     0.420599990         0.087010010         0.181430003
     0.089079997         0.414250002         0.368010031
     0.003930000         0.003680000         0.270399995
     0.241040019         0.770660033         0.544029998
     0.169090010         0.324880021         0.459120018
     0.100450019         0.681410055         0.366839989
     0.747480032         0.970680065         0.540279972
     0.590100014         0.164890008         0.361079973
     0.231620014         0.484300008         0.551769990
     0.732850018         0.246060012         0.551100005
     0.667360023         0.834819960         0.460350017
     0.338219992         0.409830018         0.366000004
     0.516430001         0.761330018         0.552150023
     0.723689937         0.470340015         0.542339975
     0.173380021         0.833840058         0.465059979
     0.228270002         0.252210001         0.541100032
     0.336320016         0.907290000         0.365559977
     0.739070006         0.748640019         0.554610020
     0.664910019         0.332610023         0.457820008
     0.082840052         0.924770076         0.224740004
     0.747980040         0.258040030         0.409909979
     0.846119961         0.424770010         0.224740004
     0.522109961         0.754880022         0.420830001
     0.503930002         0.003680000         0.140499998
     0.168540014         0.337199999         0.326989990
     0.813139998         0.640150019         0.563589991
     0.582840070         0.661490066         0.224740004
     0.247990003         0.980859993         0.413450009
     0.082840006         0.161490000         0.224740004
     0.760080017         0.491850006         0.421360000
     0.582840040         0.424770010         0.224740004
     0.254320017         0.759950009         0.413759995
     0.003930027         0.503680008         0.140499998
     0.670530042         0.837530085         0.326759996
     0.314739985         0.178639996         0.561220002
     0.346120056         0.924770076         0.224740004
     0.018259998         0.267360010         0.419260002
     0.846120015         0.924770076         0.224740004
     0.531160002         0.248930020         0.412840018
     0.582840058         0.161490000         0.224740004
     0.246900027         0.480820022         0.412059991
     0.503930006         0.503680008         0.140499998
     0.168520022         0.837210077         0.326989990
     0.813409932         0.144580010         0.559559994
     0.082839998         0.424770010         0.224740004
     0.745089975         0.757990011         0.411399987
     0.758360041         0.249250003         0.138129991
     0.425450025         0.579930017         0.322609975
     0.091519981         0.894900032         0.508580012
     0.495069996         0.749250021         0.138129991
     0.158280008         0.080260007         0.323070000
     0.823430027         0.403670017         0.510099999
     0.258360002         0.012540000         0.138129991
     0.926400005         0.349700005         0.322919997
     0.584400023         0.673700005         0.510689992
     0.837260017         0.670350059         0.222369997
     0.487289980         0.006180000         0.402249979
     0.186370013         0.336820014         0.590849978
     0.837260052         0.170350005         0.222369997
     0.484730022         0.498370015         0.405649988
     0.198850006         0.811409997         0.597830012
     0.758360029         0.749250021         0.138129991
     0.425429996         0.079920005         0.322609975
     0.096660000         0.413439995         0.508079992
     0.258360023         0.512540001         0.138129991
     0.926379981         0.849710060         0.322919997
     0.603150027         0.179020005         0.504949974
     0.495070008         0.249250003         0.138129991
     0.158290009         0.580260012         0.323070000
     0.828490023         0.886270057         0.507589989
     0.995069966         0.249250003         0.138129991
     0.657859963         0.582149997         0.322569979
     0.335379991         0.914229995         0.504559996
     0.337260010         0.170350005         0.222369997
     0.012660014         0.516080061         0.404610024
     0.669520020         0.835770043         0.595439953
     0.758360044         0.512540001         0.138129991
     0.426400045         0.848780050         0.322529984
     0.078370000         0.165450009         0.507130037
     0.258360008         0.749250021         0.138129991
     0.926909975         0.081739999         0.321999984
     0.579090012         0.405590014         0.504450026
     0.758360064         0.012540000         0.138129991
     0.426400003         0.348780008         0.322529984
     0.099960017         0.668770045         0.503780005
     0.995069996         0.749250021         0.138129991
     0.657859959         0.082140003         0.322569979
     0.320069994         0.418250000         0.508580012
     0.258360010         0.249250003         0.138129991
     0.926910020         0.581740047         0.321999984
     0.581789974         0.910650079         0.509419961
     0.082840028         0.661490066         0.224740004
     0.755720057         0.989340000         0.422079998
     0.582840094         0.924770076         0.224740004
     0.260750017         0.269860021         0.417970009
     0.346120002         0.424770010         0.224740004
     0.030220009         0.757120026         0.413269991
     0.003930000         0.003680000         0.140499998
     0.670539963         0.337529995         0.326750015
     0.329090022         0.672700030         0.556119989
     0.337260038         0.670350059         0.222369997
     0.000040006         0.996370034         0.409330003
     0.678789964         0.341380001         0.590749989
