40%opt                                  
   1.00000000000000     
    11.4110002518000009    0.0000000000000000    0.0000000000000000
    -5.7055001259000004    9.8822161006000009    0.0000000000000000
     0.0000000000000000    0.0000000000000000   26.1811008453000014
   H    Ti   Mn   O 
    23    21    16    84
Selective dynamics
Direct
  0.3367499920000014  0.6696500179999987  0.2972800220000025   F   F   F
  0.0425786879491597  0.0885310809721673  0.4249294271112447   T   T   T
  0.3367399810000009  0.1696500119999982  0.2972800220000025   F   F   F
  0.0226803606554782  0.5228581894003526  0.4443173073581689   T   T   T
  0.8369600660000032  0.6711800420000031  0.2972900030000005   F   F   F
  0.4893586848791855  0.0058781338239200  0.4405473320960667   T   T   T
  0.8369600799999972  0.1711699999999965  0.2972900030000005   F   F   F
  0.4693342397803590  0.5133415409598570  0.4461075652279902   T   T   T
  0.1706000080000010  0.8370100240000014  0.2481600099999994   F   F   F
  0.7921881216235890  0.2069559052155796  0.4227769559747045   T   T   T
  0.6706000189999983  0.3370100059999999  0.2481600099999994   F   F   F
  0.3108255198035864  0.7241580409626991  0.4210102634421915   T   T   T
  0.6706000080000010  0.8370100240000014  0.2481600099999994   F   F   F
  0.4230814779193608  0.1799752767568777  0.4259365738996834   T   T   T
  0.1706000089999975  0.3370100059999999  0.2481600099999994   F   F   F
  0.7711940651309419  0.6973667823887411  0.4298814711241476   T   T   T
  0.5031642537773423  0.3415232590631519  0.3367556309522045   T   T   T
  0.4252968099380610  0.2900168058192918  0.5328313842168697   T   T   T
  0.0577637949496719  0.9633875867012378  0.5105515345842023   T   T   T
  0.1628660358923426  0.1658906472208557  0.3338595959523118   T   T   T
  0.5070506835255131  0.8516511167527341  0.3379215990483999   T   T   T
  0.2175301010158321  0.0583311102170825  0.5205535025176573   T   T   T
  0.8965171682302469  0.1982065034245793  0.6135280335036768   T   T   T
  0.9206000320000030  0.0870100100000002  0.1814300030000027   F   F   F
  0.1706000149999980  0.5870100400000027  0.1814300030000027   F   F   F
  0.8331144325142860  0.9421596939394091  0.3655250252656543   T   T   T
  0.5039300019999970  0.0036800000000028  0.2703999949999982   F   F   F
  0.4205999989999967  0.3370100059999999  0.1814300030000027   F   F   F
  0.9205999870000028  0.8370100240000014  0.1814300030000027   F   F   F
  0.4206000049999972  0.5870100400000027  0.1814300030000027   F   F   F
  0.0897360844945538  0.9175965865479938  0.3738092586733260   T   T   T
  0.0039300270000027  0.5036800080000035  0.2703999949999982   F   F   F
  0.6706000109999977  0.0870100100000002  0.1814300030000027   F   F   F
  0.1706000109999977  0.0870100100000002  0.1814300030000027   F   F   F
  0.8204541410649357  0.4301837168226256  0.3667149071356235   T   T   T
  0.4205999870000028  0.8370100240000014  0.1814300030000027   F   F   F
  0.5039300059999974  0.5036800080000035  0.2703999949999982   F   F   F
  0.9205999839999990  0.5870100400000027  0.1814300030000027   F   F   F
  0.9205999989999967  0.3370100059999999  0.1814300030000027   F   F   F
  0.5877661388616316  0.6657644927287193  0.3615118476413386   T   T   T
  0.6706000049999972  0.5870100400000027  0.1814300030000027   F   F   F
  0.4205999899999995  0.0870100100000002  0.1814300030000027   F   F   F
  0.0842664206817361  0.4037925678789591  0.3669462210965975   T   T   T
  0.0039299999999969  0.0036800000000028  0.2703999949999982   F   F   F
  0.2752915746798337  0.8266493519556093  0.5457731774039374   T   T   T
  0.1619525443125056  0.3393700503944714  0.4598931870915593   T   T   T
  0.0959730004444808  0.6763911861943797  0.3660130972953013   T   T   T
  0.7735598730146123  0.9813281646170324  0.5637927374781810   T   T   T
  0.5927620817061338  0.1643120225573966  0.3623552194925069   T   T   T
  0.2262601206122241  0.5240624172864515  0.5409954876687308   T   T   T
  0.7611056971926332  0.2795191236919194  0.5662950924056959   T   T   T
  0.6494401223251671  0.8336116739054874  0.4560410146540548   T   T   T
  0.3285418799448792  0.4114364831644508  0.3696994340283979   T   T   T
  0.5307801987068571  0.7893536113038877  0.5486218109896654   T   T   T
  0.6979734598669224  0.4566043350548057  0.5699644285879301   T   T   T
  0.1951026545092773  0.8537050654116242  0.4644602529377337   T   T   T
  0.2171808967907153  0.2920966560706049  0.5426566549300275   T   T   T
  0.3384615447011683  0.9241162831430145  0.3666544883861462   T   T   T
  0.7421942663760746  0.7503441232485243  0.5633928379071308   T   T   T
  0.6643501113714478  0.3343452103354708  0.4615259413105832   T   T   T
  0.0828400520000017  0.9247700760000015  0.2247400039999974   F   F   F
  0.7507316165201487  0.2574900717659929  0.4084404029786199   T   T   T
  0.8461199609999994  0.4247700100000031  0.2247400039999974   F   F   F
  0.5094899987837566  0.7547784476011971  0.4229745746591434   T   T   T
  0.5039300019999970  0.0036800000000028  0.1404999980000028   F   F   F
  0.1685400140000013  0.3371999989999992  0.3269899900000013   F   F   F
  0.7245224521171919  0.6086792839931334  0.5970062428804750   T   T   T
  0.5828400700000032  0.6614900659999989  0.2247400039999974   F   F   F
  0.2560002320890931  0.9987518624828269  0.4123221983182859   T   T   T
  0.0828400059999979  0.1614900000000006  0.2247400039999974   F   F   F
  0.7624587663082353  0.4862462719027931  0.4267107532760406   T   T   T
  0.5828400400000007  0.4247700100000031  0.2247400039999974   F   F   F
  0.2553913119689427  0.7664638914481188  0.4141533924351535   T   T   T
  0.0039300270000027  0.5036800080000035  0.1404999980000028   F   F   F
  0.6705300420000029  0.8375300849999974  0.3267599959999998   F   F   F
  0.3342294937275980  0.2345678753147311  0.5483745049594404   T   T   T
  0.3461200559999966  0.9247700760000015  0.2247400039999974   F   F   F
  0.0113602964985589  0.2766423275774841  0.4241954662025976   T   T   T
  0.8461200149999968  0.9247700760000015  0.2247400039999974   F   F   F
  0.5200563259925702  0.2343008496421533  0.4170832825652368   T   T   T
  0.5828400580000022  0.1614900000000006  0.2247400039999974   F   F   F
  0.2434790442336379  0.4885916840816194  0.4106992438188044   T   T   T
  0.5039300059999974  0.5036800080000035  0.1404999980000028   F   F   F
  0.1685200220000027  0.8372100770000017  0.3269899900000013   F   F   F
  0.8286507807594176  0.1628075259494892  0.5863713808207436   T   T   T
  0.0828399979999972  0.4247700100000031  0.2247400039999974   F   F   F
  0.7424888021780517  0.7588496779634396  0.4155002589242258   T   T   T
  0.7583600410000031  0.2492500030000002  0.1381299909999996   F   F   F
  0.4254500250000035  0.5799300170000024  0.3226099749999989   F   F   F
  0.1451318594535778  0.9657115914198541  0.5117491387349347   T   T   T
  0.4950699959999980  0.7492500210000017  0.1381299909999996   F   F   F
  0.1582800079999984  0.0802600069999997  0.3230700000000013   F   F   F
  0.8529709057320218  0.4565774128505780  0.5590204841310823   T   T   T
  0.2583600020000034  0.0125400000000013  0.1381299909999996   F   F   F
  0.9264000049999979  0.3497000050000025  0.3229199969999996   F   F   F
  0.6122439794456511  0.7068201628130524  0.5128446649831557   T   T   T
  0.8372600169999984  0.6703500590000004  0.2223699970000013   F   F   F
  0.5009588121424073  0.9975182969769135  0.4036455950194053   T   T   T
  0.1952935529603437  0.3984683713745910  0.5880793074965071   T   T   T
  0.8372600519999978  0.1703500050000031  0.2223699970000013   F   F   F
  0.4914630414062131  0.5076489684129655  0.4102801254233554   T   T   T
  0.2603792958284572  0.8615318436512068  0.6028753814964887   T   T   T
  0.7583600290000021  0.7492500210000017  0.1381299909999996   F   F   F
  0.4254299959999983  0.0799200049999982  0.3226099749999989   F   F   F
  0.1060745971098385  0.4647039255574584  0.4969840034108657   T   T   T
  0.2583600230000016  0.5125400009999979  0.1381299909999996   F   F   F
  0.9263799809999966  0.8497100599999996  0.3229199969999996   F   F   F
  0.7089342688784229  0.2390915244614078  0.5035964675341446   T   T   T
  0.4950700079999990  0.2492500030000002  0.1381299909999996   F   F   F
  0.1582900089999981  0.5802600119999966  0.3230700000000013   F   F   F
  0.8769325046933431  0.9104072585029144  0.5442856200155076   T   T   T
  0.9950699660000026  0.2492500030000002  0.1381299909999996   F   F   F
  0.6578599629999999  0.5821499970000019  0.3225699790000007   F   F   F
  0.3655509840952079  0.9465362053363650  0.4996602004085701   T   T   T
  0.3372600100000014  0.1703500050000031  0.2223699970000013   F   F   F
  0.0084062932682443  0.5142300647627280  0.4070705562355954   T   T   T
  0.6490988904591219  0.8282797824604629  0.6027069870661279   T   T   T
  0.7583600439999998  0.5125400009999979  0.1381299909999996   F   F   F
  0.4264000450000012  0.8487800500000020  0.3225299839999991   F   F   F
  0.0788206910412796  0.1900951033323963  0.5079416419765010   T   T   T
  0.2583600079999968  0.7492500210000017  0.1381299909999996   F   F   F
  0.9269099750000009  0.0817399989999998  0.3219999840000014   F   F   F
  0.6056498683894277  0.4030478095182275  0.5143705356741393   T   T   T
  0.7583600640000014  0.0125400000000013  0.1381299909999996   F   F   F
  0.4264000029999977  0.3487800079999985  0.3225299839999991   F   F   F
  0.1249783156683648  0.7194673847477091  0.5094627986211721   T   T   T
  0.9950699959999980  0.7492500210000017  0.1381299909999996   F   F   F
  0.6578599589999996  0.0821400029999992  0.3225699790000007   F   F   F
  0.3172405842030556  0.4516601613233106  0.5059644914170250   T   T   T
  0.2583600099999970  0.2492500030000002  0.1381299909999996   F   F   F
  0.9269100200000011  0.5817400469999967  0.3219999840000014   F   F   F
  0.6381056185924338  0.9415422046171501  0.5107652421018188   T   T   T
  0.0828400279999997  0.6614900659999989  0.2247400039999974   F   F   F
  0.7592271210747938  0.9876810320930715  0.4241517811582582   T   T   T
  0.5828400939999980  0.9247700760000015  0.2247400039999974   F   F   F
  0.2539223185811536  0.2848298251291794  0.4234929925574064   T   T   T
  0.3461200019999993  0.4247700100000031  0.2247400039999974   F   F   F
  0.0331711202890261  0.7630614536208213  0.4151214563480394   T   T   T
  0.0039299999999969  0.0036800000000028  0.1404999980000028   F   F   F
  0.6705399630000031  0.3375299949999970  0.3267500150000018   F   F   F
  0.3440861698132594  0.7063517963471284  0.5489602257402311   T   T   T
  0.3372600379999966  0.6703500590000004  0.2223699970000013   F   F   F
  0.9976136665471601  0.9943926002633604  0.4132301222872528   T   T   T
  0.6419388517032800  0.2993717327705738  0.6032029440481211   T   T   T
 
  0.00000000E+00  0.00000000E+00  0.00000000E+00
  0.00000000E+00  0.00000000E+00  0.00000000E+00
  0.00000000E+00  0.00000000E+00  0.00000000E+00
  0.00000000E+00  0.00000000E+00  0.00000000E+00
  0.00000000E+00  0.00000000E+00  0.00000000E+00
  0.00000000E+00  0.00000000E+00  0.00000000E+00
  0.00000000E+00  0.00000000E+00  0.00000000E+00
  0.00000000E+00  0.00000000E+00  0.00000000E+00
  0.00000000E+00  0.00000000E+00  0.00000000E+00
  0.00000000E+00  0.00000000E+00  0.00000000E+00
  0.00000000E+00  0.00000000E+00  0.00000000E+00
  0.00000000E+00  0.00000000E+00  0.00000000E+00
  0.00000000E+00  0.00000000E+00  0.00000000E+00
  0.00000000E+00  0.00000000E+00  0.00000000E+00
  0.00000000E+00  0.00000000E+00  0.00000000E+00
  0.00000000E+00  0.00000000E+00  0.00000000E+00
  0.00000000E+00  0.00000000E+00  0.00000000E+00
  0.00000000E+00  0.00000000E+00  0.00000000E+00
  0.00000000E+00  0.00000000E+00  0.00000000E+00
  0.00000000E+00  0.00000000E+00  0.00000000E+00
  0.00000000E+00  0.00000000E+00  0.00000000E+00
  0.00000000E+00  0.00000000E+00  0.00000000E+00
  0.00000000E+00  0.00000000E+00  0.00000000E+00
  0.00000000E+00  0.00000000E+00  0.00000000E+00
  0.00000000E+00  0.00000000E+00  0.00000000E+00
  0.00000000E+00  0.00000000E+00  0.00000000E+00
  0.00000000E+00  0.00000000E+00  0.00000000E+00
  0.00000000E+00  0.00000000E+00  0.00000000E+00
  0.00000000E+00  0.00000000E+00  0.00000000E+00
  0.00000000E+00  0.00000000E+00  0.00000000E+00
  0.00000000E+00  0.00000000E+00  0.00000000E+00
  0.00000000E+00  0.00000000E+00  0.00000000E+00
  0.00000000E+00  0.00000000E+00  0.00000000E+00
  0.00000000E+00  0.00000000E+00  0.00000000E+00
  0.00000000E+00  0.00000000E+00  0.00000000E+00
  0.00000000E+00  0.00000000E+00  0.00000000E+00
  0.00000000E+00  0.00000000E+00  0.00000000E+00
  0.00000000E+00  0.00000000E+00  0.00000000E+00
  0.00000000E+00  0.00000000E+00  0.00000000E+00
  0.00000000E+00  0.00000000E+00  0.00000000E+00
  0.00000000E+00  0.00000000E+00  0.00000000E+00
  0.00000000E+00  0.00000000E+00  0.00000000E+00
  0.00000000E+00  0.00000000E+00  0.00000000E+00
  0.00000000E+00  0.00000000E+00  0.00000000E+00
  0.00000000E+00  0.00000000E+00  0.00000000E+00
  0.00000000E+00  0.00000000E+00  0.00000000E+00
  0.00000000E+00  0.00000000E+00  0.00000000E+00
  0.00000000E+00  0.00000000E+00  0.00000000E+00
  0.00000000E+00  0.00000000E+00  0.00000000E+00
  0.00000000E+00  0.00000000E+00  0.00000000E+00
  0.00000000E+00  0.00000000E+00  0.00000000E+00
  0.00000000E+00  0.00000000E+00  0.00000000E+00
  0.00000000E+00  0.00000000E+00  0.00000000E+00
  0.00000000E+00  0.00000000E+00  0.00000000E+00
  0.00000000E+00  0.00000000E+00  0.00000000E+00
  0.00000000E+00  0.00000000E+00  0.00000000E+00
  0.00000000E+00  0.00000000E+00  0.00000000E+00
  0.00000000E+00  0.00000000E+00  0.00000000E+00
  0.00000000E+00  0.00000000E+00  0.00000000E+00
  0.00000000E+00  0.00000000E+00  0.00000000E+00
  0.00000000E+00  0.00000000E+00  0.00000000E+00
  0.00000000E+00  0.00000000E+00  0.00000000E+00
  0.00000000E+00  0.00000000E+00  0.00000000E+00
  0.00000000E+00  0.00000000E+00  0.00000000E+00
  0.00000000E+00  0.00000000E+00  0.00000000E+00
  0.00000000E+00  0.00000000E+00  0.00000000E+00
  0.00000000E+00  0.00000000E+00  0.00000000E+00
  0.00000000E+00  0.00000000E+00  0.00000000E+00
  0.00000000E+00  0.00000000E+00  0.00000000E+00
  0.00000000E+00  0.00000000E+00  0.00000000E+00
  0.00000000E+00  0.00000000E+00  0.00000000E+00
  0.00000000E+00  0.00000000E+00  0.00000000E+00
  0.00000000E+00  0.00000000E+00  0.00000000E+00
  0.00000000E+00  0.00000000E+00  0.00000000E+00
  0.00000000E+00  0.00000000E+00  0.00000000E+00
  0.00000000E+00  0.00000000E+00  0.00000000E+00
  0.00000000E+00  0.00000000E+00  0.00000000E+00
  0.00000000E+00  0.00000000E+00  0.00000000E+00
  0.00000000E+00  0.00000000E+00  0.00000000E+00
  0.00000000E+00  0.00000000E+00  0.00000000E+00
  0.00000000E+00  0.00000000E+00  0.00000000E+00
  0.00000000E+00  0.00000000E+00  0.00000000E+00
  0.00000000E+00  0.00000000E+00  0.00000000E+00
  0.00000000E+00  0.00000000E+00  0.00000000E+00
  0.00000000E+00  0.00000000E+00  0.00000000E+00
  0.00000000E+00  0.00000000E+00  0.00000000E+00
  0.00000000E+00  0.00000000E+00  0.00000000E+00
  0.00000000E+00  0.00000000E+00  0.00000000E+00
  0.00000000E+00  0.00000000E+00  0.00000000E+00
  0.00000000E+00  0.00000000E+00  0.00000000E+00
  0.00000000E+00  0.00000000E+00  0.00000000E+00
  0.00000000E+00  0.00000000E+00  0.00000000E+00
  0.00000000E+00  0.00000000E+00  0.00000000E+00
  0.00000000E+00  0.00000000E+00  0.00000000E+00
  0.00000000E+00  0.00000000E+00  0.00000000E+00
  0.00000000E+00  0.00000000E+00  0.00000000E+00
  0.00000000E+00  0.00000000E+00  0.00000000E+00
  0.00000000E+00  0.00000000E+00  0.00000000E+00
  0.00000000E+00  0.00000000E+00  0.00000000E+00
  0.00000000E+00  0.00000000E+00  0.00000000E+00
  0.00000000E+00  0.00000000E+00  0.00000000E+00
  0.00000000E+00  0.00000000E+00  0.00000000E+00
  0.00000000E+00  0.00000000E+00  0.00000000E+00
  0.00000000E+00  0.00000000E+00  0.00000000E+00
  0.00000000E+00  0.00000000E+00  0.00000000E+00
  0.00000000E+00  0.00000000E+00  0.00000000E+00
  0.00000000E+00  0.00000000E+00  0.00000000E+00
  0.00000000E+00  0.00000000E+00  0.00000000E+00
  0.00000000E+00  0.00000000E+00  0.00000000E+00
  0.00000000E+00  0.00000000E+00  0.00000000E+00
  0.00000000E+00  0.00000000E+00  0.00000000E+00
  0.00000000E+00  0.00000000E+00  0.00000000E+00
  0.00000000E+00  0.00000000E+00  0.00000000E+00
  0.00000000E+00  0.00000000E+00  0.00000000E+00
  0.00000000E+00  0.00000000E+00  0.00000000E+00
  0.00000000E+00  0.00000000E+00  0.00000000E+00
  0.00000000E+00  0.00000000E+00  0.00000000E+00
  0.00000000E+00  0.00000000E+00  0.00000000E+00
  0.00000000E+00  0.00000000E+00  0.00000000E+00
  0.00000000E+00  0.00000000E+00  0.00000000E+00
  0.00000000E+00  0.00000000E+00  0.00000000E+00
  0.00000000E+00  0.00000000E+00  0.00000000E+00
  0.00000000E+00  0.00000000E+00  0.00000000E+00
  0.00000000E+00  0.00000000E+00  0.00000000E+00
  0.00000000E+00  0.00000000E+00  0.00000000E+00
  0.00000000E+00  0.00000000E+00  0.00000000E+00
  0.00000000E+00  0.00000000E+00  0.00000000E+00
  0.00000000E+00  0.00000000E+00  0.00000000E+00
  0.00000000E+00  0.00000000E+00  0.00000000E+00
  0.00000000E+00  0.00000000E+00  0.00000000E+00
  0.00000000E+00  0.00000000E+00  0.00000000E+00
  0.00000000E+00  0.00000000E+00  0.00000000E+00
  0.00000000E+00  0.00000000E+00  0.00000000E+00
  0.00000000E+00  0.00000000E+00  0.00000000E+00
  0.00000000E+00  0.00000000E+00  0.00000000E+00
  0.00000000E+00  0.00000000E+00  0.00000000E+00
  0.00000000E+00  0.00000000E+00  0.00000000E+00
  0.00000000E+00  0.00000000E+00  0.00000000E+00
  0.00000000E+00  0.00000000E+00  0.00000000E+00
  0.00000000E+00  0.00000000E+00  0.00000000E+00
  0.00000000E+00  0.00000000E+00  0.00000000E+00
  0.00000000E+00  0.00000000E+00  0.00000000E+00
  0.00000000E+00  0.00000000E+00  0.00000000E+00
  0.00000000E+00  0.00000000E+00  0.00000000E+00
