pureLTO111
1.0
       11.4110002518         0.0000000000         0.0000000000
       -5.7055001259         9.8822161006         0.0000000000
        0.0000000000         0.0000000000        26.1811008453
   Ti   Li   Mn    O
   40   13    7   84
Selective dynamics
DIRECT    
     0.336749992         0.669650018         0.297280022    F    F    F
     0.337060006         0.167850006         0.445620010    T    T    T
     0.835710029         0.673280020         0.445790011    T    T    T
     0.920600032         0.087010010         0.181430003    F    F    F
     0.587279974         0.421740022         0.369179999    T    T    T
     0.170600015         0.587010040         0.181430003    F    F    F
     0.837249988         0.922460057         0.368930007    T    T    T
     0.496859996         0.273620013         0.561050002    T    T    T
     0.503930002         0.003680000         0.270399995    F    F    F
     0.420599999         0.337010006         0.181430003    F    F    F
     0.760949979         0.011900001         0.565819994    T    T    T
     0.920599987         0.837010024         0.181430003    F    F    F
     0.585130008         0.171210013         0.369459970    T    T    T
     0.237020015         0.503920014         0.562120017    T    T    T
     0.420600005         0.587010040         0.181430003    F    F    F
     0.086780044         0.919670027         0.370200002    T    T    T
     0.003930027         0.503680008         0.270399995    F    F    F
     0.670600011         0.087010010         0.181430003    F    F    F
     0.991249972         0.746790035         0.565689989    T    T    T
     0.170600011         0.087010010         0.181430003    F    F    F
     0.837249976         0.422459991         0.368930007    T    T    T
     0.496760017         0.773469991         0.561050002    T    T    T
     0.420599987         0.837010024         0.181430003    F    F    F
     0.087710002         0.170370005         0.369310004    T    T    T
     0.761030024         0.511940035         0.565799996    T    T    T
     0.503930006         0.503680008         0.270399995    F    F    F
     0.168650009         0.830890024         0.468800024    T    T    T
     0.920599984         0.587010040         0.181430003    F    F    F
     0.587290032         0.921740040         0.369179999    T    T    T
     0.920599999         0.337010006         0.181430003    F    F    F
     0.585139992         0.671200019         0.369469987    T    T    T
     0.236989997         0.003940000         0.562089966    T    T    T
     0.670600005         0.587010040         0.181430003    F    F    F
     0.335670003         0.917890009         0.369489985    T    T    T
     0.991300004         0.246640002         0.565670028    T    T    T
     0.420599990         0.087010010         0.181430003    F    F    F
     0.086780014         0.419670010         0.370200002    T    T    T
     0.737359956         0.743719999         0.564119990    T    T    T
     0.003930000         0.003680000         0.270399995    F    F    F
     0.672909992         0.342430014         0.467779985    T    T    T
     0.999239960         0.002709985         0.487410025    T    T    T
     0.336739981         0.169650012         0.297280022    F    F    F
     0.999300014         0.502700009         0.487410025    T    T    T
     0.836960066         0.671180042         0.297290003    F    F    F
     0.497210035         0.007970000         0.486580021    T    T    T
     0.836960080         0.171170000         0.297290003    F    F    F
     0.497250009         0.507990026         0.486590001    T    T    T
     0.170600008         0.837010024         0.248160010    F    F    F
     0.835720014         0.173290002         0.445790011    T    T    T
     0.670600019         0.337010006         0.248160010    F    F    F
     0.337049985         0.667850024         0.445620010    T    T    T
     0.670600008         0.837010024         0.248160010    F    F    F
     0.170600009         0.337010006         0.248160010    F    F    F
     0.251250028         0.753470049         0.567979986    T    T    T
     0.168710003         0.330940020         0.468810005    T    T    T
     0.087700014         0.670340022         0.369310004    T    T    T
     0.737410055         0.243740005         0.564079994    T    T    T
     0.672860025         0.842410104         0.467799983    T    T    T
     0.335670019         0.417900028         0.369489985    T    T    T
     0.251340004         0.253520020         0.568009965    T    T    T
     0.082840052         0.924770076         0.224740004    F    F    F
     0.746900058         0.261710009         0.415819998    T    T    T
     0.846119961         0.424770010         0.224740004    F    F    F
     0.515290016         0.761640037         0.415879991    T    T    T
     0.503930002         0.003680000         0.140499998    F    F    F
     0.168540014         0.337199999         0.326989990    F    F    F
     0.830980044         0.674809995         0.519720012    T    T    T
     0.582840070         0.661490066         0.224740004    F    F    F
     0.247530039         0.988960064         0.416660019    T    T    T
     0.082840006         0.161490000         0.224740004    F    F    F
     0.748490000         0.494770027         0.415669995    T    T    T
     0.582840040         0.424770010         0.224740004    F    F    F
     0.247740021         0.757870056         0.416949970    T    T    T
     0.003930027         0.503680008         0.140499998    F    F    F
     0.670530042         0.837530085         0.326759996    F    F    F
     0.334039985         0.166650002         0.520010000    T    T    T
     0.346120056         0.924770076         0.224740004    F    F    F
     0.014580007         0.257630009         0.416180033    T    T    T
     0.846120015         0.924770076         0.224740004    F    F    F
     0.515260020         0.261610006         0.415890008    T    T    T
     0.582840058         0.161490000         0.224740004    F    F    F
     0.247539998         0.488990010         0.416670000    T    T    T
     0.503930006         0.503680008         0.140499998    F    F    F
     0.168520022         0.837210077         0.326989990    F    F    F
     0.831040025         0.174820014         0.519720012    T    T    T
     0.082839998         0.424770010         0.224740004    F    F    F
     0.746880001         0.761730027         0.415829978    T    T    T
     0.758360041         0.249250003         0.138129991    F    F    F
     0.425450025         0.579930017         0.322609975    F    F    F
     0.085300020         0.911510027         0.514790000    T    T    T
     0.495069996         0.749250021         0.138129991    F    F    F
     0.158280008         0.080260007         0.323070000    F    F    F
     0.824649960         0.412780003         0.518100036    T    T    T
     0.258360002         0.012540000         0.138129991    F    F    F
     0.926400005         0.349700005         0.322919997    F    F    F
     0.582340032         0.683760026         0.515710013    T    T    T
     0.837260017         0.670350059         0.222369997    F    F    F
     0.503279996         0.004920000         0.411469998    T    T    T
     0.162160002         0.339150033         0.606450020    T    T    T
     0.837260052         0.170350005         0.222369997    F    F    F
     0.503290024         0.504930026         0.411480015    T    T    T
     0.162159999         0.839169979         0.606440003    T    T    T
     0.758360029         0.749250021         0.138129991    F    F    F
     0.425429996         0.079920005         0.322609975    F    F    F
     0.085300006         0.411470008         0.514819978    T    T    T
     0.258360023         0.512540001         0.138129991    F    F    F
     0.926379981         0.849710060         0.322919997    F    F    F
     0.582320000         0.183750008         0.515739991    T    T    T
     0.495070008         0.249250003         0.138129991    F    F    F
     0.158290009         0.580260012         0.323070000    F    F    F
     0.824630019         0.912790058         0.518130014    T    T    T
     0.995069966         0.249250003         0.138129991    F    F    F
     0.657859963         0.582149997         0.322569979    F    F    F
     0.323299999         0.916180053         0.518639979    T    T    T
     0.337260010         0.170350005         0.222369997    F    F    F
     0.003059975         0.502580007         0.411750005    T    T    T
     0.663650011         0.839410081         0.604900019    T    T    T
     0.758360044         0.512540001         0.138129991    F    F    F
     0.426400045         0.848780050         0.322529984    F    F    F
     0.089180003         0.177020006         0.518660014    T    T    T
     0.258360008         0.749250021         0.138129991    F    F    F
     0.926909975         0.081739999         0.321999984    F    F    F
     0.592199963         0.425280034         0.515169960    T    T    T
     0.758360064         0.012540000         0.138129991    F    F    F
     0.426400003         0.348780008         0.322529984    F    F    F
     0.089120015         0.677030072         0.518649996    T    T    T
     0.995069996         0.749250021         0.138129991    F    F    F
     0.657859959         0.082140003         0.322569979    F    F    F
     0.323339998         0.416169999         0.518639979    T    T    T
     0.258360010         0.249250003         0.138129991    F    F    F
     0.926910020         0.581740047         0.321999984    F    F    F
     0.592160020         0.925280003         0.515209956    T    T    T
     0.082840028         0.661490066         0.224740004    F    F    F
     0.748470030         0.994750020         0.415679976    T    T    T
     0.582840094         0.924770076         0.224740004    F    F    F
     0.247749996         0.257869990         0.416949970    T    T    T
     0.346120002         0.424770010         0.224740004    F    F    F
     0.014570027         0.757620014         0.416159998    T    T    T
     0.003930000         0.003680000         0.140499998    F    F    F
     0.670539963         0.337529995         0.326750015    F    F    F
     0.333970028         0.666620031         0.519990038    T    T    T
     0.337260038         0.670350059         0.222369997    F    F    F
     0.003069997         0.002580047         0.411750005    T    T    T
     0.663760023         0.339470016         0.604870004    T    T    T
